p cnf 17 15
6 -14 -16 0
-12 -8 17 0
-8 -9 -15 0
14 10 -2 0
-7 12 -15 0
-16 4 -7 0
-8 13 6 0
-1 -3 -2 0
-16 -2 -15 0
-6 -16 8 0
-13 -12 -9 0
1 2 3 4 5 6 7 8 9 10 11 12 13 14 15 16 17 0
-1 -2 -3 -4 -5 -6 -7 -8 -9 -10 -11 -12 -13 -14 -15 -16 -17 0
3 -1 -10 0
7 -3 17 0
